qe/outputs/qe/cbrdelay_l0_discretize/T=5,eliminate=[I_0,I_1,I_2,I_3,I_4,L_1,L_2,L_3,L_4,B,lhs=C].smt2
; benchmark generated from python API
(set-info :status unknown)
(declare-fun S_4 () Real)
(declare-fun A_1 () Real)
(declare-fun L_0 () Real)
(declare-fun S_3 () Real)
(declare-fun S_0 () Real)
(declare-fun C () Real)
(declare-fun S_2 () Real)
(declare-fun A_0 () Real)
(declare-fun S_1 () Real)
(declare-fun L0 () Real)
(declare-fun A_2 () Real)
(declare-fun A_3 () Real)
(declare-fun A_4 () Real)
(assert
 (let (($x37 (>= L0 0.0)))
 (let (($x568 (>= C 5.0)))
 (let (($x120 (>= S_4 S_3)))
 (let (($x36 (>= L_0 L0)))
 (let (($x111 (>= S_1 S_0)))
 (let (($x114 (>= S_2 S_1)))
 (let (($x117 (>= S_3 S_2)))
 (let (($x123 (>= A_2 A_1)))
 (let (($x124 (>= A_3 A_2)))
 (let (($x125 (>= A_4 A_3)))
 (and (<= (+ A_0 (* (- 1.0) L_0)) S_4) $x125 $x124 $x123 $x117 $x114 $x111 $x36 $x120 (<= (+ (* (- 2.0) C) (* (- 1.0) S_0) S_1) 0.0) (<= (+ (* (- 4.0) C) L_0 S_4 (* (- 1.0) A_0)) 0.0) (<= (+ (* (- 4.0) C) (* (- 1.0) S_1) S_4) 0.0) (<= (+ (* (- 3.0) C) (* (- 1.0) S_0) S_2) 0.0) (<= (+ (* (- 4.0) C) (* (- 1.0) S_0) S_3) 0.0) (<= (+ (* (- 5.0) C) (* (- 1.0) S_0) S_4) 0.0) (<= (+ (* (- 3.0) C) L_0 S_3 (* (- 1.0) A_0)) 0.0) (<= (+ (* (- 3.0) C) (* (- 1.0) S_1) S_3) 0.0) (<= (+ (* (- 2.0) C) S_2 (* (- 1.0) S_1)) 0.0) (<= (+ (* 3.0 C) S_0 (* (- 1.0) S_4)) 0.0) $x568 $x37 (<= (+ L_0 S_0 (* (- 1.0) A_0)) 0.0) (<= (+ C S_1 (* (- 1.0) S_3)) 0.0) (<= (+ (* 2.0 C) S_1 (* (- 1.0) S_4)) 0.0) (<= (+ (* (- 1.0) C) L_0 S_1 (* (- 1.0) A_0)) 0.0) (<= (+ (* (- 2.0) C) (* (- 1.0) S_3) S_4) 0.0) (<= (+ (* (- 2.0) C) (* (- 1.0) S_2) S_3) 0.0) (<= (+ (* (- 3.0) C) (* (- 1.0) S_2) S_4) 0.0) (<= (+ C S_2 (* (- 1.0) S_4)) 0.0) (<= (+ (* (- 2.0) C) L_0 S_2 (* (- 1.0) A_0)) 0.0) (<= (+ C S_0 (* (- 1.0) S_2)) 0.0) (<= (+ (* 2.0 C) S_0 (* (- 1.0) S_3)) 0.0) (not (>= (+ L_0 (* (- 1.0) A_1) S_4) 0.0))))))))))))))
(check-sat)
